SumColouring/JavaBacktracker/RandomInstances/26_0.05_1.col
c File: instances/26_0.05_1.col
c
c Description: Random graph of size 26 vertices and P(0.05) of edges between any two vertices.
p col 26 325
e 2 3
e 3 16
e 4 10
e 4 14
e 4 15
e 4 22
e 5 26
e 6 18
e 7 15
e 8 24
e 9 25
e 16 24
e 24 25